succeed=True
[CUDA] cuda: usage: 5.43 GB
0 :  {link #0 : 1}, {link #1 : 2}, {link #2 : 3},
1 :  {link #0 : 2}, {link #1 : 3}, {link #2 : 0},
2 :  {link #0 : 3}, {link #1 : 0}, {link #2 : 1},
3 :  {link #0 : 0}, {link #1 : 1}, {link #2 : 2},
0 :  {link #0 : 1}, {link #1 : 2}, {link #2 : 3},
1 :  {link #0 : 2}, {link #1 : 3}, {link #2 : 0},
2 :  {link #0 : 3}, {link #1 : 0}, {link #2 : 1},
3 :  {link #0 : 0}, {link #1 : 1}, {link #2 : 2},
0 :  {link #0 : 1}, {link #1 : 2}, {link #2 : 3},
1 :  {link #0 : 2}, {link #1 : 3}, {link #2 : 0},
2 :  {link #0 : 3}, {link #1 : 0}, {link #2 : 1},
3 :  {link #0 : 0}, {link #1 : 1}, {link #2 : 2},
0 : local 80, cpu 0 {link #0 : g1 0}, {link #1 : g2 0}, {link #2 : g3 0},
1 : local 80, cpu 0 {link #0 : g2 0}, {link #1 : g3 0}, {link #2 : g0 0},
2 : local 80, cpu 0 {link #0 : g3 0}, {link #1 : g0 0}, {link #2 : g1 0},
3 : local 80, cpu 0 {link #0 : g0 0}, {link #1 : g1 0}, {link #2 : g2 0},
0 : local 80, cpu 0 {link #0 : g1 0}, {link #1 : g2 0}, {link #2 : g3 0},
1 : local 80, cpu 0 {link #0 : g2 0}, {link #1 : g3 0}, {link #2 : g0 0},
2 : local 80, cpu 0 {link #0 : g3 0}, {link #1 : g0 0}, {link #2 : g1 0},
3 : local 80, cpu 0 {link #0 : g0 0}, {link #1 : g1 0}, {link #2 : g2 0},
0 : local 80, cpu 0 {link #0 : g1 0}, {link #1 : g2 0}, {link #2 : g3 0},
1 : local 80, cpu 0 {link #0 : g2 0}, {link #1 : g3 0}, {link #2 : g0 0},
2 : local 80, cpu 0 {link #0 : g3 0}, {link #1 : g0 0}, {link #2 : g1 0},
3 : local 80, cpu 0 {link #0 : g0 0}, {link #1 : g1 0}, {link #2 : g2 0},
0 :  {link #0 : 1}, {link #1 : 2}, {link #2 : 3},
1 :  {link #0 : 2}, {link #1 : 3}, {link #2 : 0},
2 :  {link #0 : 3}, {link #1 : 0}, {link #2 : 1},
3 :  {link #0 : 0}, {link #1 : 1}, {link #2 : 2},
0 : local 80, cpu 0 {link #0 : g1 0}, {link #1 : g2 0}, {link #2 : g3 0},
1 : local 80, cpu 0 {link #0 : g2 0}, {link #1 : g3 0}, {link #2 : g0 0},
2 : local 80, cpu 0 {link #0 : g3 0}, {link #1 : g0 0}, {link #2 : g1 0},
3 : local 80, cpu 0 {link #0 : g0 0}, {link #1 : g1 0}, {link #2 : g2 0},
Set parameter WLSAccessID
Set parameter WLSSecret
Set parameter LicenseID
Set parameter TimeLimit to value 200
Set parameter MIPGap to value 0.05
Set parameter LogFile to value "cppsolver.log"
Set parameter Threads to value 40
Academic license - for non-commercial use only - registered to xiaoniu.sxn@sjtu.edu.cn
Gurobi Optimizer version 9.5.1 build v9.5.1rc2 (linux64)
Thread count: 40 physical cores, 80 logical processors, using up to 40 threads
Academic license - for non-commercial use only - registered to xiaoniu.sxn@sjtu.edu.cn
Optimize a model with 5692 rows, 1858 columns and 15284 nonzeros
Model fingerprint: 0xb3cfee3c
Variable types: 5 continuous, 1853 integer (1853 binary)
Coefficient statistics:
  Matrix range     [5e-09, 2e+02]
  Objective range  [1e+00, 1e+00]
  Bounds range     [1e+00, 1e+00]
  RHS range        [1e+00, 2e+02]
Found heuristic solution: objective 7823.5770350
Presolve removed 4135 rows and 221 columns
Presolve time: 0.02s
Presolved: 1557 rows, 1637 columns, 6197 nonzeros
Found heuristic solution: objective 7823.5770333
Variable types: 5 continuous, 1632 integer (1632 binary)

Root relaxation: objective 1.952956e+03, 1286 iterations, 0.01 seconds (0.01 work units)

    Nodes    |    Current Node    |     Objective Bounds      |     Work
 Expl Unexpl |  Obj  Depth IntInf | Incumbent    BestBd   Gap | It/Node Time

     0     0 1952.95644    0   21 7823.57703 1952.95644  75.0%     -    0s
H    0     0                    1961.2641415 1952.95644  0.42%     -    0s

Explored 1 nodes (1908 simplex iterations) in 0.06 seconds (0.04 work units)
Thread count was 40 (of 80 available processors)

Solution count 3: 1961.26 7823.58 7823.58 

Optimal solution found (tolerance 5.00e-02)
Best objective 1.961264141531e+03, best bound 1.952956440122e+03, gap 0.4236%
coll_cache:optimal_local_rate=0.183379,0.195998,0.200281,0.223354,
coll_cache:optimal_remote_rate=0.619632,0.607013,0.602731,0.579658,
coll_cache:optimal_cpu_rate=0.196989,0.196989,0.196989,0.196989,
z=1961.26
test_result:init:feat_nbytes=56862697472
test_result:init:cache_nbytes=625489408
test_result:init:feat_nbytes=56862697472
test_result:init:cache_nbytes=625489408
test_result:init:feat_nbytes=56862697472
test_result:init:cache_nbytes=625489408
test_result:init:feat_nbytes=56862697472
test_result:init:cache_nbytes=625489408
    [Step(average) Profiler Level 1 E3 S147]
        L1  sample           0.004279 | send           0.000000
        L1  recv             0.000000 | copy           0.010532 | convert time 0.000000 | train  0.008825
        L1  feature nbytes  520.48 MB | label nbytes 0.00 Bytes
        L1  id nbytes      0.00 Bytes | graph nbytes 0.00 Bytes
        L1  miss nbytes    0.00 Bytes | remote nbytes 0.00 Bytes
        L1  num nodes               0 | num samples           0
        L1  seq duration     0.000000 | refresh duration   0.000000
    [Step(average) Profiler Level 2 E3 S147]
        L2  shuffle     0.000000 | core sample  0.000000 | id remap        0.000000
        L2  graph copy  0.000000 | id copy      0.000000 | cache feat copy 0.010532
        L2  last layer sample time 0.000000 | size 0.000000
    [Step(average) Profiler Level 3 E3 S147]
        L3  khop sample coo  0.000000 | khop sort coo      0.000000 | khop count edge     0.000000 | khop compact edge 0.000000
        L3  walk sample coo  0.000000 | walk topk total    0.000000 | walk topk step1     0.000000 | walk topk step2   0.000000
        L3  walk topk step3  0.000000 | walk topk step4    0.000000 | walk topk step5     0.000000
        L3  walk topk step6  0.000000 | walk topk step7    0.000000
        L3  remap unique     0.000000 | remap populate     0.000000 | remap mapnode       0.000000 | remap mapedge     0.000000
        L3  cache get_index  0.000760 | cache copy_index   0.000000 | cache extract_miss  0.000000
        L3  cache copy_miss  0.000000 | cache combine_miss 0.000000 | cache combine cache 0.009738 | cache combine remote 0.000000
        L3  label extract  0.000000
    [Profiler Level Percentiles E3 S147]
        p50.00_tail_logl2featcopy=0.010714
        p90.00_tail_logl2featcopy=0.011829
        p95.00_tail_logl2featcopy=0.011912
        p99.00_tail_logl2featcopy=0.012125
        p99.90_tail_logl2featcopy=0.014503
[CUDA] cuda: usage: 7.91 GB
Rank=1, Graph loaded.
!!!!Train_dataloader(with 37 items) enumerate latency: 1.4498462677001953
!!!!Train_data_list(with 37 items) enumerate latency: 7.867813110351562e-06, transfer latency: 1.427689552307129
presamping
presamping takes 1.7677264213562012
Rank=3, Graph loaded.
!!!!Train_dataloader(with 37 items) enumerate latency: 1.7651991844177246
!!!!Train_data_list(with 37 items) enumerate latency: 6.9141387939453125e-06, transfer latency: 1.7440459728240967
presamping
presamping takes 1.7675104141235352
Rank=2, Graph loaded.
!!!!Train_dataloader(with 37 items) enumerate latency: 1.4323973655700684
!!!!Train_data_list(with 37 items) enumerate latency: 7.152557373046875e-06, transfer latency: 1.4084739685058594
presamping
presamping takes 1.8704214096069336
config:eval_tsp="2023-04-14 19:45:55"
config:num_worker=4
config:num_intra_size=4
config:root_dir=/nvme/songxiaoniu/graph-learning/wholegraph
config:graph_name=ogbn-papers100M
config:epochs=4
config:batchsize=8000
config:skip_epoch=2
config:local_step=250
config:presc_epoch=2
config:neighbors=10,25
config:hiddensize=256
config:num_layer=2
config:model=sage
config:framework=dgl
config:dataloaderworkers=0
config:dropout=0.5
config:lr=0.003
config:use_nccl=False
config:use_amp=True
config:use_collcache=True
config:cache_percentage=0.01
config:cache_policy=coll_cache_asymm_link
config:omp_thread_num=40
config:unsupervised=False
config:classnum=172
config:global_barrier=<multiprocessing.synchronize.Barrier object at 0x7f8f2ad88430>
config:worker_id=0
creating_intra_node_communicator root=0, local_size=4, world_size=4
Rank=0, Graph loaded.
!!!!Train_dataloader(with 37 items) enumerate latency: 1.4195470809936523
!!!!Train_data_list(with 37 items) enumerate latency: 6.9141387939453125e-06, transfer latency: 1.3760054111480713
epoch=4 total_steps=148
presamping
presamping takes 1.748016119003296
start training...
[Epoch 0], time=1.9648528099060059, loss=5.043720722198486
[Epoch 1], time=0.8773326873779297, loss=4.9483962059021
[Epoch 2], time=0.876882791519165, loss=4.863912105560303
[Epoch 3], time=0.8759415149688721, loss=4.789177894592285
|===========================================================================|
|                  PyTorch CUDA memory summary, device ID 0                 |
|---------------------------------------------------------------------------|
|            CUDA OOMs: 0            |        cudaMalloc retries: 0         |
|===========================================================================|
|        Metric         | Cur Usage  | Peak Usage | Tot Alloc  | Tot Freed  |
|---------------------------------------------------------------------------|
| Allocated memory      |   75790 KB |  396290 KB |  209318 MB |  209244 MB |
|       from large pool |   69245 KB |  390089 KB |  206827 MB |  206759 MB |
|       from small pool |    6545 KB |    9181 KB |    2491 MB |    2484 MB |
|---------------------------------------------------------------------------|
| Active memory         |   75790 KB |  396290 KB |  209318 MB |  209244 MB |
|       from large pool |   69245 KB |  390089 KB |  206827 MB |  206759 MB |
|       from small pool |    6545 KB |    9181 KB |    2491 MB |    2484 MB |
|---------------------------------------------------------------------------|
| GPU reserved memory   |    1098 MB |    1098 MB |    1098 MB |       0 B  |
|       from large pool |    1086 MB |    1086 MB |    1086 MB |       0 B  |
|       from small pool |      12 MB |      12 MB |      12 MB |       0 B  |
|---------------------------------------------------------------------------|
| Non-releasable memory |   90097 KB |  337127 KB |  172986 MB |  172898 MB |
|       from large pool |   86402 KB |  333159 KB |  170302 MB |  170218 MB |
|       from small pool |    3695 KB |    6904 KB |    2684 MB |    2680 MB |
|---------------------------------------------------------------------------|
| Allocations           |      55    |      69    |   23534    |   23479    |
|       from large pool |      11    |      22    |    8546    |    8535    |
|       from small pool |      44    |      49    |   14988    |   14944    |
|---------------------------------------------------------------------------|
| Active allocs         |      55    |      69    |   23534    |   23479    |
|       from large pool |      11    |      22    |    8546    |    8535    |
|       from small pool |      44    |      49    |   14988    |   14944    |
|---------------------------------------------------------------------------|
| GPU reserved segments |      21    |      21    |      21    |       0    |
|       from large pool |      15    |      15    |      15    |       0    |
|       from small pool |       6    |       6    |       6    |       0    |
|---------------------------------------------------------------------------|
| Non-releasable allocs |      17    |      31    |    9707    |    9690    |
|       from large pool |       4    |      15    |    5088    |    5084    |
|       from small pool |      13    |      22    |    4619    |    4606    |
|---------------------------------------------------------------------------|
| Oversize allocations  |       0    |       0    |       0    |       0    |
|---------------------------------------------------------------------------|
| Oversize GPU segments |       0    |       0    |       0    |       0    |
|===========================================================================|

[TRAIN_TIME] train time is 4.595961 seconds
[EPOCH_TIME] 1.148990 seconds, maybe large due to not enough epoch skipped.
[EPOCH_TIME] 0.876540 seconds

